NAME: ../File/prFile/tspFile/tsp_file33.tsp
COMMENT: TSP file generated by Python
TYPE: TSP
DIMENSION: 30
EDGE_WEIGHT_TYPE: EUC_2D
NODE_COORD_SECTION
1 59 50
2 58 72
3 21 71
4 32 67
5 32 67
6 95 99
7 65 7
8 39 94
9 44 27
10 19 93
11 12 85
12 5 79
13 58 42
14 96 84
15 97 48
16 91 16
17 49 69
18 88 66
19 65 54
20 72 58
21 5 89
22 5 64
23 33 80
24 80 50
25 31 53
26 82 96
27 91 7
28 83 100
29 48 27
30 67 9
EOF
